Maximize
 obj: 0 X1
Subject To
 c1:
  + 1 X69 + 1 X45 + 1 X5 + 1 X72 + 1 X17 + 1 X64 + 1 X96 + 1 X37
  + 1 X4 + 1 X25 + 1 X35 + 1 X71 + 1 X42 + 1 X87 + 1 X26
  <= 1
 c2:
  + 1 X75 + 1 X14 + 1 X61 + 1 X72 + 1 X30 + 1 X20 + 1 X55 + 1 X35
  + 1 X36
  <= 1
 c3:
  + 1 X48 + 1 X71 + 1 X79 + 1 X43 + 1 X66 + 1 X27 + 1 X80 + 1 X74
  + 1 X16 + 1 X96 + 1 X95 + 1 X91
  <= 1
 c4:
  + 1 X97 + 1 X67 + 1 X52 + 1 X53 + 1 X8 + 1 X74 + 1 X22 + 1 X100
  + 1 X98 + 1 X29 + 1 X69 + 1 X33
  <= 1
 c5:
  + 1 X83 + 1 X69 + 1 X26 + 1 X91 + 1 X87 + 1 X61
  <= 1
 c6:
  + 1 X96 + 1 X71
  <= 1
 c7:
  + 1 X14 + 1 X81 + 1 X70 + 1 X22 + 1 X16 + 1 X10 + 1 X50 + 1 X35
  + 1 X90 + 1 X85 + 1 X17 + 1 X36 + 1 X29 + 1 X30
  <= 1
 c8:
  + 1 X75 + 1 X65 + 1 X100 + 1 X83 + 1 X28 + 1 X48 + 1 X92 + 1 X6
  + 1 X19
  <= 1
 c9:
  + 1 X30 + 1 X58 + 1 X44
  <= 1
 c10:
  + 1 X20 + 1 X50 + 1 X33
  <= 1
 c11:
  + 1 X29 + 1 X8 + 1 X21 + 1 X70 + 1 X7 + 1 X15 + 1 X99 + 1 X1
  + 1 X34 + 1 X77 + 1 X58 + 1 X51 + 1 X26 + 1 X44
  <= 1
 c12:
  + 1 X78 + 1 X94 + 1 X46 + 1 X26 + 1 X88
  <= 1
 c13:
  + 1 X94 + 1 X41 + 1 X76 + 1 X59 + 1 X86 + 1 X49 + 1 X14 + 1 X60
  + 1 X12 + 1 X19 + 1 X24 + 1 X20 + 1 X15 + 1 X46 + 1 X35 + 1 X69
  <= 1
 c14:
  + 1 X78 + 1 X36 + 1 X13 + 1 X6 + 1 X10 + 1 X18 + 1 X55 + 1 X49
  + 1 X38 + 1 X58 + 1 X90
  <= 1
 c15:
  + 1 X31 + 1 X99 + 1 X51 + 1 X79 + 1 X41 + 1 X5 + 1 X20
  <= 1
 c16:
  + 1 X77 + 1 X25 + 1 X49 + 1 X45 + 1 X69 + 1 X44 + 1 X87 + 1 X31
  + 1 X80 + 1 X33 + 1 X15 + 1 X3 + 1 X61 + 1 X75
  <= 1
 c17:
  + 1 X80 + 1 X35
  <= 1
 c18:
  + 1 X43 + 1 X85 + 1 X66 + 1 X57 + 1 X21 + 1 X23 + 1 X54 + 1 X11
  + 1 X80 + 1 X7 + 1 X99
  <= 1
 c19:
  + 1 X34 + 1 X9 + 1 X53 + 1 X82 + 1 X29 + 1 X66 + 1 X20
  <= 1
 c20:
  + 1 X15 + 1 X63 + 1 X83 + 1 X100 + 1 X87 + 1 X69 + 1 X7 + 1 X84
  + 1 X61 + 1 X25 + 1 X35 + 1 X10 + 1 X44 + 1 X68 + 1 X18 + 1 X41
  + 1 X23 + 1 X8
  <= 1
 obj1:
  + 61 X1 + 37 X2 + 77 X3 + 79 X4 + 3 X5 + 14 X6 + 100 X7 + 45 X8
  + 10 X9 + 24 X10 + 21 X11 + 55 X12 + 52 X13 + 26 X14 + 36 X15 + 94 X16
  + 36 X17 + 47 X18 + 69 X19 + 68 X20 + 100 X21 + 16 X22 + 92 X23 + 83 X24
  + 56 X25 + 28 X26 + 73 X27 + 100 X28 + 99 X29 + 34 X30 + 1 X31 + 30 X32
  + 72 X33 + 94 X34 + 12 X35 + 11 X36 + 46 X37 + 93 X38 + 97 X39 + 7 X40
  + 63 X41 + 82 X42 + 41 X43 + 40 X44 + 72 X45 + 35 X46 + 59 X47 + 30 X48
  + 6 X49 + 81 X50 + 51 X51 + 66 X52 + 88 X53 + 71 X54 + 6 X55 + 27 X56
  + 67 X57 + 34 X58 + 58 X59 + 61 X60 + 77 X61 + 55 X62 + 75 X63 + 19 X64
  + 48 X65 + 84 X66 + 88 X67 + 78 X68 + 2 X69 + 65 X70 + 17 X71 + 81 X72
  + 23 X73 + 45 X74 + 13 X75 + 74 X76 + 37 X77 + 83 X78 + 99 X79 + 75 X80
  + 94 X81 + 78 X82 + 79 X83 + 22 X84 + 31 X85 + 32 X86 + 74 X87 + 53 X88
  + 67 X89 + 70 X90 + 67 X91 + 22 X92 + 83 X93 + 44 X94 + 64 X95 + 43 X96
  + 71 X97 + 60 X98 + 32 X99 + 71 X100
  >= 1
 obj2:
  + 54 X1 + 84 X2 + 28 X3 + 33 X4 + 28 X5 + 3 X6 + 32 X7 + 63 X8
  + 50 X9 + 70 X10 + 75 X11 + 70 X12 + 95 X13 + 30 X14 + 76 X15 + 70 X16
  + 19 X17 + 66 X18 + 90 X19 + 99 X20 + 11 X21 + 16 X22 + 4 X23 + 86 X24
  + 39 X25 + 35 X26 + 3 X27 + 3 X28 + 55 X29 + 47 X30 + 73 X31 + 6 X32
  + 16 X33 + 92 X34 + 72 X35 + 35 X36 + 30 X37 + 69 X38 + 63 X39 + 17 X40
  + 76 X41 + 59 X42 + 59 X43 + 20 X44 + 13 X45 + 3 X46 + 9 X47 + 2 X48
  + 57 X49 + 20 X50 + 82 X51 + 70 X52 + 55 X53 + 7 X54 + 79 X55 + 32 X56
  + 52 X57 + 46 X58 + 50 X59 + 28 X60 + 82 X61 + 81 X62 + 30 X63 + 68 X64
  + 13 X65 + 66 X66 + 21 X67 + 42 X68 + 60 X69 + 72 X70 + 65 X71 + 76 X72
  + 58 X73 + 56 X74 + 77 X75 + 52 X76 + 80 X77 + 46 X78 + 98 X79 + 22 X80
  + 22 X81 + 7 X82 + 25 X83 + 2 X84 + 54 X85 + 56 X86 + 86 X87 + 98 X88
  + 15 X89 + 9 X90 + 41 X91 + 95 X92 + 68 X93 + 76 X94 + 15 X95 + 39 X96
  + 67 X97 + 17 X98 + 54 X99 + 86 X100
  >= 2
 obj3:
  + 20 X1 + 97 X2 + 11 X3 + 93 X4 + 23 X5 + 40 X6 + 50 X7 + 47 X8
  + 63 X9 + 48 X10 + 63 X11 + 52 X12 + 100 X13 + 92 X14 + 1 X15 + 17 X16
  + 20 X17 + 40 X18 + 60 X19 + 81 X20 + 20 X21 + 100 X22 + 86 X23 + 3 X24
  + 45 X25 + 69 X26 + 6 X27 + 89 X28 + 2 X29 + 68 X30 + 7 X31 + 58 X32
  + 65 X33 + 48 X34 + 96 X35 + 59 X36 + 38 X37 + 18 X38 + 4 X39 + 4 X40
  + 72 X41 + 26 X42 + 84 X43 + 44 X44 + 95 X45 + 98 X46 + 30 X47 + 95 X48
  + 72 X49 + 96 X50 + 8 X51 + 77 X52 + 89 X53 + 7 X54 + 88 X55 + 25 X56
  + 16 X57 + 85 X58 + 54 X59 + 32 X60 + 69 X61 + 39 X62 + 25 X63 + 6 X64
  + 98 X65 + 93 X66 + 67 X67 + 62 X68 + 4 X69 + 83 X70 + 51 X71 + 81 X72
  + 41 X73 + 84 X74 + 51 X75 + 68 X76 + 17 X77 + 53 X78 + 28 X79 + 44 X80
  + 58 X81 + 100 X82 + 22 X83 + 11 X84 + 32 X85 + 3 X86 + 13 X87 + 2 X88
  + 1 X89 + 41 X90 + 26 X91 + 57 X92 + 4 X93 + 80 X94 + 30 X95 + 78 X96
  + 2 X97 + 96 X98 + 9 X99 + 51 X100
  >= 3
 obj4:
  + 77 X1 + 31 X2 + 88 X3 + 83 X4 + 15 X5 + 70 X6 + 15 X7 + 74 X8
  + 39 X9 + 11 X10 + 67 X11 + 73 X12 + 24 X13 + 82 X14 + 72 X15 + 25 X16
  + 47 X17 + 9 X18 + 31 X19 + 56 X20 + 85 X21 + 91 X22 + 99 X23 + 80 X24
  + 97 X25 + 82 X26 + 16 X27 + 4 X28 + 21 X29 + 25 X30 + 61 X31 + 55 X32
  + 76 X33 + 90 X34 + 76 X35 + 2 X36 + 48 X37 + 3 X38 + 54 X39 + 27 X40
  + 43 X41 + 96 X42 + 35 X43 + 46 X44 + 30 X45 + 43 X46 + 42 X47 + 62 X48
  + 53 X49 + 77 X50 + 11 X51 + 48 X52 + 78 X53 + 19 X54 + 12 X55 + 52 X56
  + 87 X57 + 87 X58 + 45 X59 + 100 X60 + 98 X61 + 55 X62 + 47 X63 + 15 X64
  + 58 X65 + 37 X66 + 3 X67 + 20 X68 + 55 X69 + 53 X70 + 58 X71 + 78 X72
  + 34 X73 + 64 X74 + 65 X75 + 75 X76 + 58 X77 + 28 X78 + 44 X79 + 78 X80
  + 58 X81 + 62 X82 + 65 X83 + 10 X84 + 33 X85 + 27 X86 + 54 X87 + 13 X88
  + 65 X89 + 22 X90 + 77 X91 + 66 X92 + 84 X93 + 70 X94 + 15 X95 + 50 X96
  + 90 X97 + 27 X98 + 62 X99 + 40 X100
  >= 4
Binary
 X1
 X2
 X3
 X4
 X5
 X6
 X7
 X8
 X9
 X10
 X11
 X12
 X13
 X14
 X15
 X16
 X17
 X18
 X19
 X20
 X21
 X22
 X23
 X24
 X25
 X26
 X27
 X28
 X29
 X30
 X31
 X32
 X33
 X34
 X35
 X36
 X37
 X38
 X39
 X40
 X41
 X42
 X43
 X44
 X45
 X46
 X47
 X48
 X49
 X50
 X51
 X52
 X53
 X54
 X55
 X56
 X57
 X58
 X59
 X60
 X61
 X62
 X63
 X64
 X65
 X66
 X67
 X68
 X69
 X70
 X71
 X72
 X73
 X74
 X75
 X76
 X77
 X78
 X79
 X80
 X81
 X82
 X83
 X84
 X85
 X86
 X87
 X88
 X89
 X90
 X91
 X92
 X93
 X94
 X95
 X96
 X97
 X98
 X99
 X100
End
